Maximize
  3.7577470880936217e-04 Z_224_0_0 + 0.0666862216881704 Z_224_0_1
   + 0.6781469800204111 Z_224_0_2 + 0.00940312470603909 Z_224_0_3
   + 0.00393432448969451 Z_83_1_0 + 0.010125173587879 Z_83_1_1
   + 0.8494026669107234 Z_83_1_2 + 0.0380315004316704 Z_83_1_3
   + 0.0536432608842639 Z_83_0_0 + 0.0566137446257752 Z_83_0_1
   + 0.0422019099000525 Z_83_0_2 + 0.2580905401710524 Z_83_0_3
   + 0.00739266274022916 Z_151_0_0 + 0.0252422740580903 Z_151_0_1
   + 0.3255780288911786 Z_151_0_2 + 0.0248365535396977 Z_151_0_3
   + 0.0130054882080615 Z_328_0_0 + 0.0168644830096149 Z_328_0_1
   + 0.4584299878131871 Z_328_0_2 + 0.1048078197018622 Z_328_0_3
   + 0.000442701 Z_79_0_0 + 0.0773310661747979 Z_79_0_1
   + 0.5607523421983378 Z_79_0_2 + 0.00745538717567237 Z_79_0_3
   + 0.0278641747966369 Z_370_0_0 + 0.0229467283411162 Z_370_0_1
   + 0.0619641220383352 Z_370_0_2 + 0.0374875385047271 Z_370_0_3
   + 0.000533341 Z_511_0_0 + 0.0376114016637392 Z_511_0_1
   + 0.425880010200648 Z_511_0_2 + 0.0101655381329435 Z_511_0_3 + [
   2.7700831024930739e-04 Z_224_0_0 * Z_83_0_0
   + 2.7700831024930739e-04 Z_224_0_1 * Z_83_0_1
   + 2.7700831024930739e-04 Z_224_0_2 * Z_83_0_2
   + 2.7700831024930739e-04 Z_224_0_3 * Z_83_0_3
   + 1.80172e-05 Z_151_0_0 * Z_79_0_0 + 0.4 Z_151_0_0 * Z_370_0_0
   + 1.80172e-05 Z_151_0_1 * Z_79_0_1 + 0.4 Z_151_0_1 * Z_370_0_1
   + 1.80172e-05 Z_151_0_2 * Z_79_0_2 + 0.4 Z_151_0_2 * Z_370_0_2
   + 1.80172e-05 Z_151_0_3 * Z_79_0_3 + 0.4 Z_151_0_3 * Z_370_0_3
   + 1.80172e-05 Z_79_0_0 * Z_370_0_0 + 1.80172e-05 Z_79_0_1 * Z_370_0_1
   + 1.80172e-05 Z_79_0_2 * Z_370_0_2 + 1.80172e-05 Z_79_0_3 * Z_370_0_3
   ] / 2 
Subject To
 constraint1_2240: Z_224_0_0 + Z_224_0_1 + Z_224_0_2 + Z_224_0_3 <= 1
 constraint1_831: Z_83_1_0 + Z_83_1_1 + Z_83_1_2 + Z_83_1_3 <= 1
 constraint1_830: Z_83_0_0 + Z_83_0_1 + Z_83_0_2 + Z_83_0_3 <= 1
 constraint1_1510: Z_151_0_0 + Z_151_0_1 + Z_151_0_2 + Z_151_0_3 <= 1
 constraint1_3280: Z_328_0_0 + Z_328_0_1 + Z_328_0_2 + Z_328_0_3 <= 1
 constraint1_790: Z_79_0_0 + Z_79_0_1 + Z_79_0_2 + Z_79_0_3 <= 1
 constraint1_3700: Z_370_0_0 + Z_370_0_1 + Z_370_0_2 + Z_370_0_3 <= 1
 constraint1_5110: Z_511_0_0 + Z_511_0_1 + Z_511_0_2 + Z_511_0_3 <= 1
 constraint2_2240: Z_224_0_0 <= 1
 constraint2_2241: Z_224_0_1 <= 1
 constraint2_2242: Z_224_0_2 <= 1
 constraint2_2243: Z_224_0_3 <= 1
 constraint2_830: Z_83_1_0 + Z_83_0_0 <= 1
 constraint2_831: Z_83_1_1 + Z_83_0_1 <= 1
 constraint2_832: Z_83_1_2 + Z_83_0_2 <= 1
 constraint2_833: Z_83_1_3 + Z_83_0_3 <= 1
 constraint2_1510: Z_151_0_0 <= 1
 constraint2_1511: Z_151_0_1 <= 1
 constraint2_1512: Z_151_0_2 <= 1
 constraint2_1513: Z_151_0_3 <= 1
 constraint2_3280: Z_328_0_0 <= 1
 constraint2_3281: Z_328_0_1 <= 1
 constraint2_3282: Z_328_0_2 <= 1
 constraint2_3283: Z_328_0_3 <= 1
 constraint2_790: Z_79_0_0 <= 1
 constraint2_791: Z_79_0_1 <= 1
 constraint2_792: Z_79_0_2 <= 1
 constraint2_793: Z_79_0_3 <= 1
 constraint2_3700: Z_370_0_0 <= 1
 constraint2_3701: Z_370_0_1 <= 1
 constraint2_3702: Z_370_0_2 <= 1
 constraint2_3703: Z_370_0_3 <= 1
 constraint2_5110: Z_511_0_0 <= 1
 constraint2_5111: Z_511_0_1 <= 1
 constraint2_5112: Z_511_0_2 <= 1
 constraint2_5113: Z_511_0_3 <= 1
Bounds
Binaries
 Z_224_0_0 Z_224_0_1 Z_224_0_2 Z_224_0_3 Z_83_1_0 Z_83_1_1 Z_83_1_2
 Z_83_1_3 Z_83_0_0 Z_83_0_1 Z_83_0_2 Z_83_0_3 Z_151_0_0 Z_151_0_1 Z_151_0_2
 Z_151_0_3 Z_328_0_0 Z_328_0_1 Z_328_0_2 Z_328_0_3 Z_79_0_0 Z_79_0_1
 Z_79_0_2 Z_79_0_3 Z_370_0_0 Z_370_0_1 Z_370_0_2 Z_370_0_3 Z_511_0_0
 Z_511_0_1 Z_511_0_2 Z_511_0_3
End
